$rem
jobtype = freq
exchange = b3lyp
basis = 6-31g*
$end

$molecule
0 1
O     -3.82836316    0.25316918    0.06729860
C     -2.68557386    0.50777582    0.44917576
C     -1.54210183   -0.48969727    0.34443887
C     -0.29588178    0.24938994   -0.15499313
C      0.99487160   -0.60252231   -0.05366439
C      2.81619550    0.79600284    0.54248188
O      2.08980383    0.19136006   -0.51767447
H      2.15598270    1.41569939    1.15636070
H      3.58751831    1.43640146    0.10671741
H     -2.45442726    1.45956091    0.95604054
O     -1.89497561   -1.58293787   -0.49808842
H     -1.36795733   -0.88105785    1.35239839
H     -2.85431213   -1.49240067   -0.67965190
O      0.94814134   -1.77752161   -0.84243564
H      1.15674005   -0.92011776    0.98395438
H      0.25373106   -1.63153119   -1.51225370
O     -0.51251072    0.68004491   -1.51284200
H     -0.15139653    1.16758224    0.42564683
H      0.28162551    1.18463486   -1.77483568
H      3.30289033    0.03616492    1.16192594
$end