$rem
jobtype = freq
exchange = b3lyp
basis = 6-31g*
$end

$molecule
0 1
O     -1.92556059    0.78870452    2.52266414
C     -1.41589952    1.02606178    1.42514136
C     -0.83868125   -0.05656521    0.43562708
C     -0.38781334    0.47083187   -0.94969640
C      1.00005169   -0.17085732   -0.75249679
C      0.63481222   -0.45007790    0.71948274
O      7.37675347    0.25755964   -0.18146835
H      0.77783427   -1.48794123    1.03881650
H      1.15004474    0.19618919    1.44004748
H     -1.35240332    2.06719659    1.06704755
O     -1.74268943   -1.19325548    0.34681023
H      6.86960219    0.38851734    0.63376699
H     -2.00142845   -1.37101191    1.27263818
O      2.09145137    0.73977885   -0.92614367
H     -0.95882569    0.07334407   -1.79592545
H      2.87009038    0.16708597   -0.80739225
O      1.25455731   -1.34100109   -1.53666397
H     -0.36768414    1.56249602   -1.04595691
H      1.21214373   -1.02097873   -2.45399985
H      7.15527475   -0.64607698   -0.45229864
$end