$rem
jobtype = freq
exchange = b3lyp
basis = 6-31g*
$end

$molecule
0 1
O     -3.45361177    0.31825457    1.83680714
C     -2.23855551    0.40151985    1.99630363
C     -1.29359532   -0.78683756    1.93139251
C     -0.00570958   -0.02835576    0.05878983
C      0.86932688   -0.60950202   -1.04697132
C      1.64159066    0.45323526   -1.81480088
O      2.39110874   -0.15643993   -2.86175492
H      2.33652483    0.99895597   -1.16878235
H      0.96340306    1.17724673   -2.27631810
H     -1.75518778    1.38144865    2.14688035
O     -0.70954453   -1.08695948    0.67861267
H     -0.51495212   -0.65331138    2.69059426
H     -1.86779051   -1.66889804    2.23646291
O     -0.93475846    0.88591308   -0.46512588
H      0.25674510   -1.18800402   -1.75061472
H     -1.57849733    0.32475209   -0.93592530
O      0.78220943    0.68986847    0.97335783
H      1.58023881   -1.32937956   -0.62018921
H      0.46594086    1.60081267    0.84089664
H      3.06511453   -0.72431958   -2.44961506
$end