$rem
jobtype = freq
exchange = b3lyp
basis = 6-31g*
$end

$molecule
0 1
O      2.00951191   -1.16311007   -1.60652208
C      1.92520350    0.05474228   -1.59170980
C     -1.29591502   -1.02283856   -0.34392347
C     -1.13500159    0.37175927    0.27591817
C      0.03557762    0.49266790    1.27696298
C      1.43450577    0.15524507    0.72415955
O      1.69561956    0.83768923   -0.50871085
H      2.18764068    0.49483491    1.44542142
H      1.56995395   -0.93032576    0.65648131
H      2.02307924    0.69191782   -2.48366556
O     -2.07230498   -0.92257036   -1.53813407
H     -1.80516993   -1.70299379    0.34536234
H     -1.78990543   -0.07479870   -1.94240836
O     -0.22580593   -0.27577830    2.45448011
H      0.06878231    1.54403433    1.59026608
H     -0.11219741   -1.22056255    2.24724867
O     -1.01202726    1.32806342   -0.79258516
H     -2.07531000    0.60579404    0.79136091
H     -1.08505538    2.21169818   -0.38651156
H     -0.34118162   -1.47546836   -0.61349063
$end