$rem
jobtype = freq
exchange = b3lyp
basis = 6-31g*
$end

$molecule
0 1
O     -3.60278403   -0.47499633    0.57818246
C     -2.50751264   -0.52767577    1.00403331
C     -1.29427256   -0.56331366    1.45926552
C     -0.05555173   -0.31150012    0.66750325
C     -0.27654350    0.27765317   -0.73333420
C      0.97818836    0.47941238   -1.58916784
O      2.16724223    0.01327906   -0.96910062
H      1.10862310    1.53809812   -1.83904388
H      0.86480692   -0.05793630   -2.53685511
H     -2.26569548   -2.87166904   -1.13424416
O     -1.50250408   -3.09764387   -0.58158218
H     -1.14822904   -0.97103028    2.45357120
H     -1.86387446   -3.70863558    0.07800980
O      0.76749584    0.57261898    1.41615586
H     -0.77294649    1.25448728   -0.64614448
H      0.28651618    1.41234420    1.50313866
O      0.61747031   -1.55127849    0.60917621
H     -0.96355395   -0.35746269   -1.30758006
H      1.46343337   -1.35428671    0.15999850
H      2.36761763    0.62158715   -0.22979880
$end