$rem
jobtype = freq
exchange = b3lyp
basis = 6-31g*
$end

$molecule
0 1
C     -0.00000000    0.00000000    0.00000000
C      1.36461934    1.42015949   -2.49945971
H     -0.55994273    0.90194315   -0.25663628
H     -0.46820957   -0.48741210    0.85796779
H     -0.00033033   -0.68347056   -0.85191982
O      2.19694371    0.52185187   -2.50091490
H      1.49299522    2.33926832   -1.90574219
H      0.43744623    1.36317347   -3.09178095
H      1.02848264    0.26893951    0.25058831
$end