$rem
jobtype = freq
exchange = b3lyp
basis = 6-31g*
$end

$molecule
0 1
O     -2.44676510   -0.24604682    1.99056923
C     -1.98962378    0.27005303    0.96599920
C     -0.51350782    0.65691340    0.73317672
C     -0.01886967    0.76524716   -0.73273805
C      0.45921460   -0.71233307   -0.61285762
C      0.53688876   -0.47126170    0.92358680
O      1.83175421   -0.04520988    1.41216151
H      0.18771638   -1.32466843    1.51432813
H      3.10344840   -2.13164503    3.03551020
H     -2.66810751    0.46692919    0.11990187
O      2.37261048   -1.93815342    3.64164380
H     -0.27443333    1.55945352    1.31123565
H      2.54247071   -2.51193703    4.40379921
O      1.71688021   -1.03653554   -1.24760236
H     -0.31108523   -1.44014280   -0.89945284
H      1.76838864   -2.00967792   -1.21956694
O     -1.02462272    1.04697530   -1.72699108
H      0.81576234    1.47242740   -0.83648380
H     -0.53857408    1.46037168   -2.46450479
H      2.46898410   -0.41249454    0.76923837
$end