$comment
reac_opt.00000
$end
$molecule
0 1
C     -2.06547088    1.07623262   -2.16849957
C     -1.45371220   -0.06402392   -2.50762989
C     -1.95059640   -1.36302445   -2.12763987
C     -1.33228793   -2.50335887   -2.45519554
H     -1.65566009    2.03315084   -2.47620038
H     -2.97841855    1.09075814   -1.58180028
H     -0.53971911   -0.01972671   -3.09629891
H     -2.87059550   -1.40755136   -1.54837054
H     -0.41189800   -2.51786063   -3.03014618
H     -1.74263498   -3.45994449   -2.14718991
$end
$rem
jobtype opt
basis 6-31+g*
method b3lyp
sym_ignore true
geom_opt_max_cycles 100
$end
