$rem
 JOBTYPE FORCE
 EXCHANGE B3LYP
 SCF_ALGORITHM diis
 SCF_MAX_CYCLES 150
 SCF_CONVERGENCE 6
 basis 6-31G*
 WAVEFUNCTION_ANALYSIS FALSE
 SYM_IGNORE TRUE
 SYMMETRY   FALSE
 XC_GRID 1
$end

$molecule
0 1
C -2.761579681638381 1.0315586799324903 -0.4729716611793119 
C -2.4607692973355406 -0.2447923202052382 -0.523721063610112 
C -2.1666839432530973 -1.4945335168334355 -0.5582673349359751 
C -1.955548133944071 -2.7947106236523434 -0.6410676548314223 
C 1.1756354666024746 0.12449828566237645 -0.042362721656234816 
C 1.0268388603182796 -1.2404569185119418 0.40633593070110735 
H 1.9995585840751506 0.4210714632056605 -0.6832769388050715 
H 0.873488807498329 0.8834501579134164 0.6647370052974003 
H 1.2582773640059628 -1.973818300194115 -0.3637693593503956 
H 1.283433025483322 -1.6201539610428162 1.37980873271119 
H -3.7838404455648846 1.3964482398642075 -0.42437587859127746 
H -1.967844198052149 1.782940931719581 -0.49562528726778377 
H -0.6962628481833995 -1.2852496517090715 1.0874588310255586 
H -0.2645889062820506 0.31241986142468176 -1.5212948496024838 
H -0.968936049037071 -3.2205571941793543 -0.83423425255022 
H -2.7607955545158247 -3.5111768240670296 -0.5212918272450933 
$end