$rem
 JOBTYPE FORCE
 EXCHANGE B3LYP
 SCF_ALGORITHM diis
 SCF_MAX_CYCLES 150
 SCF_CONVERGENCE 6
 basis 6-31G*
 WAVEFUNCTION_ANALYSIS FALSE
 SYM_IGNORE TRUE
 SYMMETRY   FALSE
 XC_GRID 1
$end

$molecule
0 1
C -2.3967278001843377 0.38103447459555184 -0.9062072051061906 
C -3.2635471846090245 -0.23879126630839728 -0.1428032405450876 
C -2.619584712252375 -1.3240056048370652 -0.6784996515183916 
C -2.303043672431162 -2.5893216975120636 -0.8394365008437862 
C 0.9878714609742881 0.2865668716565365 0.47987066771353565 
C 0.8322054640175698 -1.2487545440025134 1.0693001872501293 
H 2.0448197917168924 0.5422609274470302 0.03950567137706912 
H 0.8025537049852898 0.8795301724004739 1.255684955112911 
H 1.0271127201938488 -2.1851443473134804 0.26794326230029875 
H 1.5189243570763544 -1.3173745921287674 1.7914845360041183 
H -2.9075954674293976 0.8625844659962334 -1.7404239379941588 
H -1.5380638010321954 0.9005896287744206 -0.48944209870516653 
H -0.6319090977215824 -1.4773655941381294 1.6607122204166076 
H 0.6308931398374771 0.41447025455884595 0.01781780268319617 
H -1.3841221878125796 -3.0003840053306665 -0.42374947620835945 
H -2.9767866923380604 -3.2909652991430725 -1.329867421553549 
$end