$rem
 JOBTYPE FORCE
 EXCHANGE B3LYP
 SCF_ALGORITHM diis
 SCF_MAX_CYCLES 150
 SCF_CONVERGENCE 6
 basis 6-31G*
 WAVEFUNCTION_ANALYSIS FALSE
 SYM_IGNORE TRUE
 SYMMETRY   FALSE
 XC_GRID 1
$end

$molecule
0 1
C -3.1192419418064556 0.8527491997746888 -0.6299446661217858 
C -3.2468687420661517 -0.42883935278055485 -0.8869676092033194 
C -2.946918203114369 -1.6799565449085463 -0.9017678288915394 
C -2.7635099131894227 -2.983769043707051 -1.028842899835438 
C 2.3569186885775313 0.5095922696636135 0.824645362027989 
C 2.077737255650476 -0.7137995403242783 1.2213024425708068 
H 3.092487078262124 0.649151916210571 0.03701230709047039 
H 2.083352321260225 1.345080576313098 1.4482808125990037 
H 2.414368907546643 -1.5332278230406362 0.5996280542605976 
H 1.7474400328905082 -0.9757977000527273 2.2244438981242087 
H -3.100992936285884 1.6762469948112497 -1.3402933484841872 
H -3.164596481067133 1.2125987248769055 0.3893717971702926 
H -0.2212114661147135 -0.5848642128701591 0.3483953018557378 
H 0.24213258793895048 -0.17638472618058498 -0.09949501041528588 
H -2.9987657717263465 -3.6899077270221277 -0.23253687449308552 
H -2.8375993632770458 -3.378278125874458 -2.0517035716222076 
$end