$rem
 JOBTYPE FORCE
 EXCHANGE B3LYP
 SCF_ALGORITHM diis
 SCF_MAX_CYCLES 150
 SCF_CONVERGENCE 6
 basis 6-31G*
 WAVEFUNCTION_ANALYSIS FALSE
 SYM_IGNORE TRUE
 SYMMETRY   FALSE
 XC_GRID 1
$end

$molecule
0 1
C -1.7151995613253808 0.6365481577263232 0.5824083568597982 
C -2.6597297310433374 -0.22243989710114687 0.02185448313531462 
C -2.5797544244598223 -1.699571880026154 -0.3139400507816935 
C -1.6265601039524369 -2.541959695856903 -0.08388793292368503 
C 1.838094159826699 0.08337586702026067 -0.33207508704538985 
C 1.7522450468517872 -0.9367923217645856 0.4489633402645072 
H 2.6166170858104563 0.004046024404528029 -1.0465203798837404 
H 1.3012773449287898 1.0147135516701737 -0.327947094021504 
H 2.467972778299465 -1.712553022525439 0.1487575511531502 
H 1.131157874405637 -1.135502953260635 1.2481367159728383 
H -2.0875021779748986 1.6047167477194997 1.0183260849230602 
H -0.645266796795111 0.5026105290902354 0.5274396889406412 
H -3.6929140488691523 0.14977279514820246 0.05187650950927203 
H -3.58780370847701 -2.105441131640619 -0.3118492914339547 
H -0.5713147653137958 -2.2704062913504535 -0.08197311979124836 
H -1.8551286829735738 -3.605293190023205 -0.07600203113034912 
$end