$rem
jobtype = freq
exchange = b3lyp
basis = 6-31g*
$end

$molecule
0 1
O     -3.18057803    0.49539315   -0.26712400
C     -2.26982820   -0.15937110    0.24333341
C     -1.14065461   -0.81084751   -0.57228726
C      0.24025800   -0.23314593   -0.29571352
C      0.50453294    0.86568853    0.44144892
C      1.86246579    1.43958055    0.69201995
O      2.75054197    0.38800418    1.04252347
H      1.84106704    2.17349355    1.50328197
H      2.24121874    1.93224976   -0.20857319
H     -2.21928217   -0.31890887    1.33385709
O     -1.16604490   -2.18409118   -0.23552068
H     -0.55875898    2.29328926   -1.92567459
H     -1.36881916   -2.59451828   -1.09439464
O     -1.42206469   -0.72645818   -1.95859482
H     -0.30692178    1.43516424    0.88625405
H     -2.26354158   -0.23519484   -2.02750941
O      1.28741566   -0.93792491   -0.89103729
H     -0.35931112    2.17777597   -2.62886534
H      2.13214852   -0.61016501   -0.51937868
H      2.47808645    0.08105185    1.92741465
$end