$rem
jobtype = freq
exchange = b3lyp
basis = 6-31g*
$end

$molecule
0 1
O     -1.14968782    2.17697788    0.95856260
C     -0.60099247    1.14943964    0.59127895
C     -1.35147667   -0.16630374    0.34392424
C     -0.28435887   -0.98750589   -0.37531985
C      1.02622124   -0.54011772    0.25763437
C      0.90427798    0.98783117    0.33108092
O      1.79034053    1.50060665    1.30373748
H      3.15263925    3.69090324   -0.73580093
H      1.14192580    1.45309666   -0.63230239
H      2.79517949    3.95845782   -0.14568478
O     -2.52174329   -0.15284882   -0.44740581
H     -1.57384799   -0.60382335    1.32329113
H     -3.25706541    0.12690656    0.12905039
O      2.14308333   -0.92915899   -0.53937744
H      1.15487765   -0.96764299    1.25921313
H      1.81720257   -0.94351883   -1.46502611
O     -0.26021038   -0.67088430   -1.77750747
H     -0.45650689   -2.06389794   -0.28942650
H     -1.20275936   -0.55249533   -2.02964788
H      2.68072006    1.18333936    1.05824027
$end