$rem
jobtype = freq
exchange = b3lyp
basis = 6-31g*
$end

$molecule
0 1
O     -0.65673531   -0.60932957   -1.54937686
C     -0.40533533   -1.55454220   -0.52323230
C     -0.61466135   -0.94435819    0.85554857
C      0.27419709    0.27482507    1.02473907
C      0.05796004    1.25516826   -0.13313351
C      0.20624145    0.52228993   -1.47657871
O      1.56605620    0.14968831   -1.67909726
H     -0.05773695    1.20118817   -2.29415517
H      0.60139783   -1.97404125   -0.62726737
H     -1.66625743   -0.65427507    0.98501993
O     -1.33177440   -2.61183327   -0.68738473
H     -0.42219385   -1.68280318    1.64296293
H     -2.03896978   -2.21234831   -1.22291097
O      1.02029673    2.31566098   -0.03573311
H     -0.94116556    1.70134969   -0.05751595
H      0.93626816    2.64331051    0.88323310
O     -0.02090670    0.95247250    2.25163025
H      1.32924805   -0.02008019    1.07688674
H      0.08763933    0.30836344    2.97493658
H      2.07643178    0.93929438   -1.40857124
$end