$rem
jobtype = freq
exchange = b3lyp
basis = 6-31g*
$end

$molecule
0 1
C      1.42194137   -0.10687148    0.18335074
C      0.36556692    0.29076747   -0.45244116
H      2.40646174    0.11037188   -0.20809730
H      0.25321902    0.96727874   -1.58170237
H      0.92303905    1.30782053   -1.22210520
O     -0.59213625    0.65125855   -1.02883627
H     -0.47778092    0.91760374   -1.47791664
H      0.20914622    1.44613264   -1.08489445
H      1.32461603   -0.65807692    1.10877285
$end