$rem
jobtype = freq
exchange = b3lyp
basis = 6-31g*
$end

$molecule
0 1
C     -6.28122074    0.46074381    0.04085374
C     -6.07136283    1.89923092   -0.34029964
H     -6.70427846    2.65093545    0.11367416
H     -7.05823979    0.22465853    0.75656264
H     -6.09887465   -0.30250308   -0.70475889
O     -5.15183247    1.20623122    0.51337584
H     -5.11994643    2.02144483    0.84299602
H     -5.74490681    2.12377400   -1.34764316
H     -4.71669082    1.42014844    0.99605666
$end