$rem
jobtype = freq
exchange = b3lyp
basis = 6-31g*
$end

$molecule
0 1
O     -2.10981260    0.99036990    0.22327222
C     -0.84795251    0.52416513    0.76238750
C     -0.56178231   -0.99459071    0.51803590
C      0.61948773   -0.60328188   -0.30932640
C      0.36879739    0.84375123   -0.03616929
C      0.62300622    0.38307538   -1.43342284
O      7.00844999    0.14218672   -0.07618027
H     -0.21273536    0.36923658   -2.12301762
H      1.56852422    0.64007446   -1.89385736
H     -0.77053248    0.80592230    1.81936301
O     -1.60800871   -1.72473739   -0.16362991
H     -0.28474363   -1.52664629    1.43619929
H     -2.25401985   -1.02562404   -0.39281056
O      1.42029507    1.54758797    0.64025544
H     -2.03841612    1.96088446    0.27770205
H      2.19301849    0.95640143    0.74296326
O      1.89708797   -1.11090535    0.11279221
H      6.59684599   -0.66219620   -0.42619637
H      1.99778648   -2.03568317   -0.18073689
H      6.32912468    0.52000947    0.50237663
$end