$rem
jobtype = freq
exchange = b3lyp
basis = 6-31g*
$end

$molecule
0 1
O     -3.42816196    0.72734646   -0.68332823
C     -2.54819431    0.30936699    0.05197741
C     -0.65765430   -1.00487499    0.63251081
C      0.62842793   -0.40096706    0.12319036
C      0.75191779    1.09810575   -0.05280350
C      0.75763254    0.19864368   -1.25519212
O      7.77165503    0.14218672   -0.07618027
H     -0.10889554    0.22834142   -1.90641505
H      1.69105590    0.08130854   -1.79233122
H     -2.31245964    0.76467452    1.02534098
O     -1.75640873   -0.74061257   -0.25255958
H     -0.86553099   -0.66836367    1.65541047
H     -0.54953540   -2.09455758    0.67333812
O      2.02585308    1.65608640    0.31094476
H     -0.11810631    1.72782098    0.08793212
H      2.59737509    0.95397006    0.67811799
O      1.82249508   -1.03816272    0.63111870
H      7.36005103   -0.66219620   -0.42619637
H      2.07018977   -1.79812623    0.07274799
H      7.09232971    0.52000947    0.50237663
$end