$rem
jobtype = freq
exchange = b3lyp
basis = 6-31g*
$end

$molecule
0 1
O      2.11802383    0.05326684   -1.95856172
C      1.22504865   -0.58355972   -1.40884277
C      1.13399036   -0.70311577    0.11953882
C     -0.30160253   -0.75155451    0.66693945
C     -1.11138102    0.57131212    0.66376863
C     -0.81696101    1.57284924   -0.44599199
O      0.30184510   -1.28075055   -2.10440972
H     -1.07785599    1.17488981   -1.43002333
H     -1.39244958    2.49175095   -0.28314950
H      0.23164157    1.88492941   -0.45031870
O      1.87542166    0.32393835    0.78036076
H      1.62779493   -1.65513467    0.35307825
H      2.65269996    0.49836304    0.20789861
O     -0.93536146    1.23504023    1.91853510
H     -2.17752381    0.32145711    0.60144065
H      0.00482559    1.49137063    1.98217268
O     -1.03062415   -1.79457669   -0.01098352
H     -0.21668312   -1.07358362    1.71432973
H     -1.75699448   -2.04891747    0.59592490
H     -0.35385448   -1.72797473   -1.51170633
$end