$rem
jobtype = freq
exchange = b3lyp
basis = 6-31g*
$end

$molecule
0 1
O     -1.96619604    0.36440536   -1.49738712
C     -0.93209090    0.28624678   -0.83684016
C     -0.90885117   -0.11719223    0.63319961
C      0.57225712   -0.09179062    0.85344674
C      1.29527174    0.25196240   -0.21669191
C      0.44578529    0.53152986   -1.41284516
O     -1.08430789    3.32120118   -0.07929335
H      0.65080361   -0.17417203   -2.22062254
H      0.54279384    1.56808001   -1.74174025
H     -1.94677865    3.22690284    0.35223070
O     -1.43577857   -1.41051490    0.83566762
H     -1.42493367    0.62613577    1.24692163
H     -2.33662690   -1.39111895    0.46581746
O      5.49303433   -4.32748495    0.10665056
H      2.37286586    0.33366853   -0.23951855
H      5.13042830   -4.08024403   -0.75726483
O      1.07726631   -0.37224244    2.09375633
H      4.70869048   -4.49442567    0.65061427
H      2.04743351   -0.40499755    2.03683628
H     -1.11193680    4.20924344   -0.46604726
$end