$rem
jobtype = freq
exchange = b3lyp
basis = 6-31g*
$end

$molecule
0 1
O     -3.69470242    0.27124392   -0.58939805
C     -2.76257926    0.00182954    0.15571981
C     -0.96601797   -1.26578864    1.00972329
C      0.22752538   -0.45873425    0.55015875
C      0.37666892    0.07215592   -0.67713232
C      1.48008103    0.97873377   -1.11112990
O      2.71461918    0.50112613   -0.59351131
H      1.30835074    1.98710884   -0.72181829
H      1.53196976    1.02331580   -2.20302872
H     -2.37956257    0.70106632    0.91423505
O     -2.07937716   -1.16376302    0.10942905
H     -1.28071080   -0.95817674    2.01499894
H     -0.68541618   -2.32291647    1.06812057
O      8.15582383   -0.02676673    0.10665056
H     -0.37591171   -0.12678180   -1.43767564
H      7.79321780    0.22047419   -0.75726483
O      1.17716896   -0.24640890    1.53373444
H      7.37147998   -0.19370745    0.65061427
H      1.99659966    0.04379829    1.07299583
H      3.41129444    0.96219130   -1.09542150
$end