$rem
jobtype = freq
exchange = b3lyp
basis = 6-31g*
$end

$molecule
0 1
O     -2.47574751    1.57396873    0.50545470
C     -1.35424085    1.89571197    0.85181037
C      0.50516113   -1.04260313    1.32729195
C      0.42041001   -1.37619934   -0.15460944
C      0.70847654   -0.19598454   -1.11571717
C     -0.27327658    0.97641268   -1.02255430
O     -0.18197854    1.64790592    0.23608960
H     -1.28575636    0.62994116   -1.26120391
H     -0.01586845    1.71151011   -1.79533672
H     -0.38724880   -0.51473977    1.67003613
O     -1.12627264    2.56430823    1.99112560
H      0.60100251   -1.95469175    1.92672827
H     -2.02131852    2.69363221    2.36226030
O      0.69005955   -0.66678299   -2.47562545
H      1.72725261    0.16559118   -0.93307186
H      0.03738470   -1.38836770   -2.53399613
O      1.35811375   -2.43206496   -0.41362924
H     -0.56524537   -1.80089903   -0.37478998
H      2.25464349   -2.05968598   -0.33447377
H      1.38444935   -0.42696299    1.54421104
$end