$rem
jobtype = freq
exchange = b3lyp
basis = 6-31g*
$end

$molecule
0 1
O     -1.49051168    2.49386049    0.93244285
C     -2.02033100    1.44169515    1.28197920
C     -1.30865130    0.12169429    1.59024211
C      0.05494594    0.06506059    0.95648622
C      0.29399797   -0.35442674   -0.29305266
C      1.58034957   -0.75718035   -2.18324601
O      2.86925927   -0.51754158   -2.72083112
H      1.51912019   -1.59671559   -5.34490989
H      1.37270424   -1.82959787   -2.26221232
H     -3.10881667    1.41989166    1.46192432
O     -2.11200524   -0.95762802    1.10688800
H     -1.23132374    0.01725232    2.67811726
H     -2.77474329   -1.14925013    1.79195981
O      1.56223987   -0.36460564   -0.81492567
H     -0.49791059   -0.69020760   -0.95029891
H      1.95329472   -2.17180922   -5.17650621
O      1.10984492    0.44421703    1.77403079
H      0.84879056   -0.19527057   -2.77652344
H      1.91552158    0.36342722    1.22435521
H      2.93663959    0.44860978   -2.79733565
$end