$rem
jobtype = freq
exchange = b3lyp
basis = 6-31g*
$end

$molecule
0 1
O     -2.22400506   -0.24340181    1.78120422
C     -1.42120981   -0.74463152    0.98993445
C     -0.03969091   -0.16468140    0.62381292
C     -0.18656531    1.03399776   -0.32215248
C      0.40729560    0.38038212   -1.33865916
C      0.76591313   -0.82867921   -0.51559286
O      2.18259384   -0.98905191   -0.30596697
H      0.66033014   -3.78958140    1.77107259
H      0.34065532   -1.77659983   -0.86428214
H     -1.68363927   -1.68917589    0.48341135
O      0.29890188   -3.00740262    2.21438622
H      0.55920185    0.02555821    1.52397446
H     -0.60681324   -3.26533211    2.44267004
O      5.30969854   -4.31436692    0.10665056
H      0.61862028    0.64872669   -2.37026989
H      4.94709250   -4.06712600   -0.75726483
O     -0.72079845    2.18361325   -0.17918461
H      4.52535469   -4.48130764    0.65061427
H     -1.13153302    2.24886333    0.70489081
H      2.53316181   -0.08491980   -0.21112009
$end