$rem
jobtype = freq
exchange = b3lyp
basis = 6-31g*
$end

$molecule
0 1
O     -2.53603556   -0.74153322    0.27237551
C     -1.77077555   -0.12537908   -0.45602317
C      0.11910093   -0.39129164    1.22800976
C     -0.34287584    0.10375566   -0.12181953
C      0.35974648    0.77201325   -1.04991661
C      7.68604011    0.26664688   -0.20082189
O      6.88105196   -0.87769033    0.01548538
H      8.70937403    0.05965083    0.12176372
H      7.68386014    0.50633815   -1.26673200
H     -2.11261664    0.27558235   -1.42573091
O      0.06427008   -1.80270066    1.33306038
H     -0.51577104    0.03159599    2.01315953
H     -0.20777354   -2.16928637    0.48005267
O      1.68858278    1.07638053   -0.90879512
H     -0.04202676    1.12640651   -1.99321214
H      1.93220883    1.74493982   -1.57839526
O      1.45130736   -0.00730190    1.52849082
H      7.27919904    1.11095198    0.36109483
H      1.91265847    0.10681875    0.67874406
H      6.90230643   -1.06589752    0.96920995
$end