$rem
jobtype = freq
exchange = b3lyp
basis = 6-31g*
$end

$molecule
0 1
C     -6.49413326    0.83935851    0.03209537
C     -5.72699927    1.92369104   -0.10952584
H     -6.18200180    1.29224446    0.19371974
H     -6.89758954    0.56158414    1.00078369
H     -6.73375375    0.20815236   -0.81787722
O     -5.23691162    1.16742188    0.01998179
H     -5.48737524    2.55490100    0.74044295
H     -5.32354596    2.20146036   -1.07821682
H     -4.86504255    0.95585037    0.88941372
$end