$rem
jobtype = freq
exchange = b3lyp
basis = 6-31g*
$end

$molecule
0 1
C      0.94039625    0.36270579    0.48544546
C      0.28254724    0.69383940   -1.75204811
H      1.94461378    0.28436731    0.05288310
H      0.60232054    1.73719711   -1.65449916
H      1.08248412    0.09651254   -2.20161579
O     -0.06949040    0.14509859   -0.49005793
H     -0.59084208    0.65136317   -2.40538909
H      0.80665298    1.35023707    0.93712519
H      0.83539076   -0.39503583    1.26428652
$end