$rem
jobtype = freq
exchange = b3lyp
basis = 6-31g*
$end

$molecule
0 1
O     -3.10016245    0.51831509    0.39629120
C     -2.02858866    0.57180769    0.99599639
C     -1.12889874   -0.62529963    1.23850044
C      0.58948434   -0.15707716   -0.29732119
C      1.35984418   -0.45873449   -1.34540164
C      8.43547927    0.26656948   -0.20072800
O      7.62979897   -0.87736769    0.01511778
H      9.45853375    0.05905252    0.12240879
H      8.43399850    0.50628422   -1.26663403
H     -1.64014752    1.53497505    1.36784428
O     -0.37931648   -1.04421182    0.11103019
H     -0.47858507   -0.42817118    2.09951347
H     -1.77827144   -1.45908780    1.52835736
O      2.32874909    0.39955319   -1.80007831
H      1.27316971   -1.38211330   -1.90217335
H      2.72960138   -0.00546291   -2.59213122
O      0.76822755    1.04794289    0.35164267
H      8.02875739    1.11106706    0.36098571
H      1.48489411    1.48756436   -0.15207031
H      7.65044102   -1.06560558    0.96884974
$end