$rem
jobtype = freq
exchange = b3lyp
basis = 6-31g*
$end

$molecule
0 1
O     -1.19604105   -1.50192494   -1.03875013
C     -0.61114111   -1.02973744   -0.05515365
C     -1.11861431    0.25244203    0.59155222
C     -0.82193291    1.49289948   -0.28343218
C      0.62387335   -1.69340430    0.49849667
C      1.87509857   -0.98943526    0.01592383
O      2.15880438    0.11861149    0.85897429
H      1.79467826   -0.64764841   -1.02200920
H      2.72971898   -1.66884556    0.08478706
H     -1.48085072    2.30466474    0.04552593
O     -2.53556386    0.10226016    0.76352016
H     -0.67668521    0.36554822    1.58627463
H     -2.89077616   -0.16419878   -0.10837991
O     -1.05997196    1.32571591   -1.66807005
H      0.62015012   -2.72774039    0.13380154
H     -0.73326925    0.44884533   -1.94057124
O      0.51636862    1.93414296   -0.13706424
H      0.55427694   -1.72616944    1.59021174
H      0.48121700    2.88519755   -0.35700068
H      1.77066030    0.91877665    0.44136324
$end