$rem
jobtype = freq
exchange = b3lyp
basis = 6-31g*
$end

$molecule
0 1
O     -0.27054346   -2.98627248   -0.21025070
C      0.32042989   -2.08257812    0.34892514
C     -0.26348495   -1.11824051    1.33629196
C     -0.77348993    0.19923384    0.75162989
C     -0.95681135    0.27950598   -0.78080289
C      1.01283735    1.46221724   -1.39346582
O      1.51421199    2.65497667   -0.83558008
H      1.29251926    1.40555495   -2.44876670
H      1.46164947    0.62280959   -0.85611044
H     -1.04777926   -1.64669727    1.89086092
O      1.61605404   -1.83694808    0.07966078
H      0.50814218   -0.90121255    2.08752606
H      1.87030175   -2.54427253   -0.55239192
O     -0.39980672    1.50667121   -1.28126089
H     -0.51655675   -0.54566337   -1.34519620
H     -2.02324824    0.30558359   -1.03226969
O     -2.04588412    0.49480858    1.35905672
H     -0.10658175    1.00522525    1.07990622
H     -1.90194080    0.63018563    2.31151768
H      0.70998140    3.09511238   -0.50928005
$end