$rem
jobtype = freq
exchange = b3lyp
basis = 6-31g*
$end

$molecule
0 1
O      0.90205011    1.36165426    0.09879964
C     -0.50512116    1.02648522   -0.02437170
C     -0.67435300   -0.43000071    0.24195425
C     -0.89814896    0.10648337   -1.15253872
C      1.64522503    0.15600943    0.34626345
C      0.63534340   -0.93398547    0.73165824
O      7.56142841    0.25755964   -0.18146835
H      0.90184235   -1.89562716    0.28166493
H      0.61280305   -1.07577171    1.81859577
H     -1.23737329    1.71852034    0.37039015
O     -1.84083313   -0.86243336    0.95470065
H      7.05427714    0.38851734    0.63376699
H     -2.63852733   -0.63682837    0.43684618
O      2.57342538    0.37306659    1.38872956
H      2.18241285   -0.11369684   -0.56980407
H      3.14857000    1.08637646    1.06651188
O     -2.28258371    0.15750251   -1.55479119
H     -0.15677812   -0.11139027   -1.91276708
H     -2.36795347    0.07363572   -2.52184194
H      7.33994970   -0.64607698   -0.45229864
$end