$rem
jobtype = freq
exchange = b3lyp
basis = 6-31g*
$end

$molecule
0 1
C     -6.74232213    0.90831215   -0.04452688
C     -5.40137974    1.53728603   -0.26583403
H     -7.49860813    1.69363751    0.02422766
H     -6.73593423    0.32759792    0.88115702
H     -6.97140665    0.24959708   -0.88538475
O     -4.45455553    1.39828849    0.50137776
H     -5.11994643    2.02144483    0.84299602
H     -5.30650933    2.14835166   -1.17925209
H     -4.71669082    1.42014844    0.99605666
$end