$rem
jobtype = freq
exchange = b3lyp
basis = 6-31g*
$end

$molecule
0 1
C      0.00000002   -0.00000000    0.00000000
C     -3.51964012   -0.48414022   -0.35223652
H      1.04503251    0.17131088   -0.26731836
H     -3.80354670    0.45263350   -0.85779949
H     -3.68827244   -1.40611563   -0.93125840
O     -3.04810793   -0.49955968    0.77787064
H     -0.61871504    0.05095897   -0.89860691
H     -0.32442023    0.76461809    0.70923211
H     -0.10189726   -0.98688794    0.45669316
$end