$rem
jobtype = freq
exchange = b3lyp
basis = 6-31g*
$end

$molecule
0 1
O     -2.73670242    0.86165171    0.52644451
C     -1.66945997    0.31938134    1.31224567
C     -0.38534273    0.09674849    0.62022397
C      0.01100362    0.27562260   -0.79390274
C      1.32778219   -0.44081102   -0.36454026
C      0.99620413   -0.05735882    1.09888863
O      7.27107127    0.25755964   -0.18146835
H      1.19341839   -0.84380827    1.83273157
H      1.46096167    0.87239076    1.44428431
H     -1.64599970    0.55967052    2.36868420
O     -1.25878445   -1.00009082    0.91967937
H      6.76392000    0.38851734    0.63376699
H     -2.87066265    0.29318017   -0.25548032
O      2.55346203    0.10072061   -0.90244735
H      1.29726195   -1.52725819   -0.52831722
H      2.66328354   -0.33515646   -1.76533574
O     -0.77524045   -0.36215617   -1.82107137
H      0.15476592    1.33563267   -1.04132570
H     -0.31595104   -0.14835911   -2.65076154
H      7.04959256   -0.64607698   -0.45229864
$end