$rem
jobtype = freq
exchange = b3lyp
basis = 6-31g*
$end

$molecule
0 1
O     -2.30672649    1.84983272    0.90206059
C     -1.68151856    0.95472136    1.46300899
C     -1.03159706   -0.22960194    0.75818320
C      0.08917521    0.10700448   -1.22291039
C      1.07581096   -0.56817360   -0.27762023
C      0.46134192   -0.26301664    1.06460717
O      7.55189773    0.25755964   -0.18146835
H      0.70800853   -1.02498967    1.81181467
H      0.82870097    0.69093823    1.46310351
H     -1.57053919    0.95904334    2.56126294
O     -1.18972729   -0.16349775   -0.66576595
H      7.04474645    0.38851734    0.63376699
H     -1.53057085   -1.13889904    1.10916717
O      2.39613603   -0.06001398   -0.37809904
H      1.10721818   -1.65105114   -0.44921155
H      2.67498798   -0.21932970   -1.30004245
O      0.19123853   -0.45350026   -2.51512537
H      0.25628124    1.18894143   -1.28720874
H     -0.47822015    0.02159214   -3.03722452
H      7.33041901   -0.64607698   -0.45229864
$end