$rem
jobtype = freq
exchange = b3lyp
basis = 6-31g*
$end

$molecule
0 1
C     -0.29662629   -0.43861264   -0.07984496
C      0.42099634    0.62251014    0.11331535
H      2.03823477    1.63073315   -2.55118027
H     -0.87367031   -0.86028037    0.73189536
H     -0.32228235   -0.90813005   -1.05380686
O      1.07158262    1.58451292    0.28844110
H      3.80314940   -3.31108606   -0.26042375
H      1.61346373    1.02760447   -2.60953564
H      4.16884128   -3.68869344    0.26042375
$end