$rem
jobtype = freq
exchange = b3lyp
basis = 6-31g*
$end

$molecule
0 1
O     -1.62183294   -1.05461971    0.35312644
C     -0.58797882   -0.52302823   -0.01585685
C      0.19172002    0.56368754    0.70428435
C     -1.43416868    3.16808764   -1.42520901
C     -0.35901993    3.93626334   -1.62154558
C      0.50097216    3.92250679   -2.84377155
O      0.53429204    5.22400785   -3.41522368
H      0.14605323    3.22566231   -3.60825091
H      1.52381709    3.64008485   -2.57559534
H     -0.49712438    1.14581045    1.32193960
O      0.03635548   -0.93140356   -1.14487382
H      0.94281787    0.09072523    1.34321592
H     -0.54641138   -1.64260858   -1.48826942
O      0.84537136    1.45618999   -0.18834947
H     -0.06590584    4.61761651   -0.82802621
H      1.23708278    0.89524689   -0.88521675
O     -1.87926372    2.25898221   -2.34052552
H     -2.03062231    3.20570474   -0.52176095
H     -2.72133103    1.88849593   -2.02184235
H      0.62571866    5.86449119   -2.69251215
$end