$rem
jobtype = freq
exchange = b3lyp
basis = 6-31g*
$end

$molecule
0 1
C      0.03507388   -0.39261090    0.53917380
C     -0.03507435    0.39261092   -0.53917374
H      0.98710652   -0.77880134    0.88957858
H     -0.98710634    0.77880204   -0.88957956
H      0.85815414    0.66465944   -1.09273059
O     -0.74898280    2.39880873    1.62415795
H     -0.09000339    2.89456536    1.11530383
H     -0.23576919    1.99247722    2.33862803
H     -0.85815384   -0.66466019    1.09273153
$end