$rem
jobtype = freq
exchange = b3lyp
basis = 6-31g*
$end

$molecule
0 1
O     -2.60167692    0.82672917    2.12058530
C     -1.52620138    0.86021645    1.52775358
C     -1.01579856   -0.29951275    0.68420622
C      1.12388376    0.58905362   -1.52902914
C      1.12514068   -0.57049542   -0.56578765
C      0.50747838   -0.42832107    0.79339392
O      7.85208535    0.25755964   -0.18146835
H      0.77976434   -1.30889642    1.38841121
H      0.94562417    0.44025013    1.29993425
H     -0.92160497    1.78346178    1.50137211
O     -1.63293715   -1.52145314    1.06838650
H      7.34493407    0.38851734    0.63376699
H     -2.55755006   -1.30011015    1.30047944
O      2.29421695    0.22765619   -0.79087359
H      1.10480667   -1.57991107   -0.95474773
H     -1.32371120   -0.08532874   -0.34508362
O      1.14065069    0.24539731   -2.91549794
H      0.62240443    1.50710702   -1.24563006
H      1.93551016    0.61415713   -3.33787281
H      7.63060663   -0.64607698   -0.45229864
$end