$rem
jobtype = freq
exchange = b3lyp
basis = 6-31g*
$end

$molecule
0 1
O     -2.37769481   -0.56397875    1.92509051
C     -1.66031340    0.29229342    1.40967341
C     -0.57975037    0.11628935    0.27172895
C     -0.89833093    1.02476785   -0.92436149
C      0.98793797   -1.23644657    0.06400594
C      0.88616563    0.11891820    0.76392185
O      7.12557195    0.25755964   -0.18146835
H      1.01654452    0.07084892    1.84940235
H      1.52449391    0.91086083    0.36282927
H     -1.73733520    1.33061089    1.77678353
O     -0.43030359   -1.26472819   -0.18672660
H      6.61842067    0.38851734    0.63376699
H     -1.86036827    0.75449188   -1.37245016
O      1.73894680   -1.26340608   -1.15601618
H      1.28453661   -2.05779928    0.72487049
H      2.66900294   -1.22708539   -0.87633320
O      0.10295733    0.93800350   -1.93793542
H     -0.95197806    2.07163533   -0.60923339
H      0.28548891   -0.01527589   -2.08524984
H      6.90409323   -0.64607698   -0.45229864
$end