$rem
jobtype = freq
exchange = b3lyp
basis = 6-31g*
$end

$molecule
0 1
O     -1.95844640   -1.83087993    1.50563139
C     -1.64891964   -0.65203199    1.35509590
C     -0.34289315   -0.14181878    0.73985369
C     -0.73170556    0.70089327   -0.46585508
C     -1.17041701    0.19291547   -1.62427496
C      1.85592267   -0.82922665    0.06065266
O      2.12077500    0.56316780    0.09529491
H      2.11481887   -1.21934484   -0.92975249
H      2.50731715   -1.32285930    0.78720589
H     -2.32655370    0.14312417    1.71582800
O      0.51560857   -1.19715571    0.34142031
H      0.13475687    0.45476244    1.52712251
H     -1.30439475   -0.87776427   -1.75435517
O      7.17003704   -0.02676673    0.10665056
H     -1.39059670    0.83561132   -2.46991212
H      6.80743100    0.22047419   -0.75726483
O     -0.51801719    2.06825682   -0.38470716
H      6.38569319   -0.19370745    0.65061427
H      0.12841291    2.24472738    0.32507109
H      2.01433205    0.86762282   -0.82431937
$end