$rem
	JOBTYPE OPT
	METHOD  B3LYP
	DFT_D   D3_BJ
	BASIS   def2-SVP
	SCF_ALGORITHM DIIS
	MAX_SCF_CYCLES 150
	SCF_CONVERGENCE 8
	GEOM_OPT_MAX_CYCLES  100
    GEOM_OPT_TOL_GRADIENT  500
    GEOM_OPT_TOL_ENERGY    300
	SYM_IGNORE TRUE
	SYMMETRY FALSE
	WAVEFUNCTION_ANALYSIS FALSE
$end

