$rem
	JOBTYPE OPT
	METHOD  B3LYP
	DFT_D   D3_BJ
	BASIS   def2-SV(P)
	ECP     def2-ecp
	SCF_ALGORITHM DIIS
	MAX_SCF_CYCLES 150
	SCF_CONVERGENCE 8
	GEOM_OPT_MAX_CYCLES  500
	SYM_IGNORE TRUE
	SYMMETRY FALSE
	WAVEFUNCTION_ANALYSIS FALSE
	XC_GRID    1
$end