$rem
	JOBTYPE OPT
	METHOD  B3LYP
	BASIS   6-31G*
	SCF_ALGORITHM DIIS
	MAX_SCF_CYCLES 150
	SCF_CONVERGENCE 6
	SYM_IGNORE TRUE
	SYMMETRY FALSE
	GEOM_OPT_MAX_CYCLES 300
	GEOM_OPT_TOL_GRADIENT 100
	GEOM_OPT_TOL_DISPLACEMENT 400
	GEOM_OPT_TOL_ENERGY 33
	WAVEFUNCTION_ANALYSIS FALSE
	XC_GRID    1
$end