$rem
JOBTYPE                   FORCE
METHOD                    B97-D3
DFT_D                     D3_BJ
BASIS                     def2-SV(P)
ECP                       def2-ecp
SCF_ALGORITHM diis
SCF_MAX_CYCLES 150
SCF_CONVERGENCE 8
WAVEFUNCTION_ANALYSIS FALSE
SYMMETRY   FALSE
SYM_IGNORE                TRUE
$end

$molecule
