$rem
JOBTYPE                   FORCE
METHOD                    B3LYP
BASIS                     6-31G*
SCF_ALGORITHM diis
SCF_MAX_CYCLES 150
SCF_CONVERGENCE 6
WAVEFUNCTION_ANALYSIS FALSE
SYMMETRY   FALSE
SYM_IGNORE                TRUE
XC_GRID                   1
$end

$molecule
