$rem
JOBTYPE                   FORCE
EXCHANGE hf
BASIS sto-3g
MAX_SCF_CYCLES 300
GEOM_OPT_MAX_CYCLES 300
GEN_SCFMAN TRUE
GEN_SCFMAN_HYBRID_ALGO TRUE
GEN_SCFMAN_ALGO_1 GDM
GEN_SCFMAN_CONV_1 5
GEN_SCFMAN_ITER_1 400
GEN_SCFMAN_ALGO_2 DIIS
GEN_SCFMAN_CONV_2 8
GEN_SCFMAN_ITER_2 700
SYM_IGNORE                TRUE
SYMMETRY                  FALSE
WAVEFUNCTION_ANALYSIS     FALSE
XC_GRID                   1
$end

$molecule
