$rem
jobtype = freq
exchange = b3lyp
basis = 6-31g*
$end

$molecule
0 1
O     -3.60001432   -0.25342941   -0.09063112
C     -2.58537784    0.25771497   -0.56843096
C     -1.21191400   -0.42067661   -0.51387568
C     -0.23890115    0.52830948    0.23362174
C      1.06865877   -0.19634747    0.62079708
C      2.12647553    0.74176649    1.18639472
O     -0.76374011   -0.66966485   -1.83806393
H      2.98815431    0.16493718    1.54098188
H      2.50739840    1.42738099    0.42220131
H     -2.62060345    1.23459112   -1.07874447
O     -1.30961077   -1.67096857    0.14939677
H      1.73505081    1.32438733    2.02592397
H     -2.23372263   -1.95968424    0.01059306
O      1.61479167   -0.83747914   -0.54263868
H      0.84929313   -0.96914587    1.36785537
H      1.67398558   -1.78877272   -0.32106111
O      0.04647844    1.67367106   -0.59094016
H     -0.70635477    0.90332918    1.15197175
H      0.46006200    1.33283935   -1.40840675
H      0.19989038   -0.82275829   -1.75694481
$end