$rem
jobtype = freq
exchange = b3lyp
basis = 6-31g*
$end

$molecule
0 1
O      2.34452495   -0.96831943    0.14788423
C      1.57144897   -0.77018393    1.08231631
C      0.09667376   -1.15581304    1.08204397
C     -0.33963102    1.33343985   -0.85265929
C     -0.55299382    0.05492582   -1.18523578
C     -0.51818773   -1.19067780   -0.32476705
O     -0.38500129    2.34666565   -1.76882692
H     -1.55647182   -1.53621203   -0.23715085
H      0.01774918   -1.95433122   -0.90424073
H      1.94847204   -0.38024480    2.04333497
O     -0.67134485   -0.35009237    1.96735233
H      0.06074139   -2.16805768    1.50154773
H     -0.69072036    0.54382060    1.56413799
O      7.45090365   -0.02676673    0.10665056
H     -0.78072243   -0.16944401   -2.22594579
H      7.08829761    0.22047419   -0.75726483
O     -0.07944260    1.72225909    0.42777551
H      6.66655980   -0.19370745    0.65061427
H      0.06372028    2.68476107    0.33139470
H     -0.52881466    1.95750422   -2.64896132
$end