$rem
jobtype = freq
exchange = b3lyp
basis = 6-31g*
$end

$molecule
0 1
O     -3.03755321    0.14784126    1.81916179
C     -1.82034083    0.22284705    1.69007948
C     -1.02759333   -0.70003173    0.73573626
C     -0.04064601    0.05859554   -0.10449723
C      0.99735247   -0.52179191   -0.73410626
C      2.04241997    0.16477943   -1.55591302
O      2.03816958    1.56202092   -1.31392742
H      1.88655121   -0.02347746   -2.62312920
H      3.03003980   -0.21815494   -1.28212156
H     -0.19179595    1.13146111   -0.20131774
O     -1.89027507   -1.39961382   -0.15187754
H     -0.51935666   -1.43986921    1.36497044
H     -2.75799952   -1.44708552    0.29658970
O      7.68696707   -0.02676673    0.10665056
H      1.10565922   -1.60408785   -0.67112678
H      7.32436104    0.22047419   -0.75726483
O     -1.06875461    1.08338593    2.41539540
H      6.90262322   -0.19370745    0.65061427
H     -0.11131359    1.04033995    2.21932189
H      1.36543653    1.94284124   -1.90323823
$end