$rem
jobtype = freq
exchange = b3lyp
basis = 6-31g*
$end

$molecule
0 1
O     -1.09655286    0.04057830    2.39842589
C     -0.46938135   -0.08531232    1.36719696
C     -0.82877802   -0.62678628   -0.03425689
C      0.47103459    0.13538178   -0.53418076
C      0.97518009    0.22341311    0.94107791
C     -0.74597780    4.00688333    0.99182476
O      0.60822880    4.10293149    0.59032603
H     -0.90277749    4.60367066    1.89370059
H     -1.39192669    4.36650725    0.18712484
H     -0.98031485    2.96115191    1.20431757
O     -2.10321478   -0.20212570   -0.57204874
H     -0.74501720   -1.71871717   -0.08477596
H     -2.72065658   -0.27165340    0.17957608
O      1.30832692   -0.63842260   -1.40744537
H      1.69182211   -0.54844529    1.23548314
H      0.79584784   -0.65626079   -2.23710772
O      0.24623934    1.41629966   -1.14697632
H      1.33334577    1.20514007    1.25931796
H      1.14180411    1.72691065   -1.36428617
H      0.78659046    5.04138634    0.40879363
$end