$rem
jobtype = freq
exchange = b3lyp
basis = 6-31g*
$end

$molecule
0 1
C      1.05477341   -0.02322306    0.06030463
C      0.30827728    0.61864988   -1.07517067
H      2.10392823    0.21161016    0.18624996
H      0.84482486    1.29424609   -1.72894521
H      0.92303905    1.30782053   -1.22210520
O      0.11009577    1.03153193    0.28306258
H     -0.48955986    0.06107948   -1.54878005
H      0.20914622    1.44613264   -1.08489445
H      0.76954822   -1.02156251    0.36640861
$end