$rem
jobtype = freq
exchange = b3lyp
basis = 6-31g*
$end

$molecule
0 1
O     -2.54004104    1.68158741    0.81585604
C     -1.72701434    0.91182009    1.31889397
C     -0.60924711    0.24983894    0.63462553
C     -0.10429661    0.19843696   -0.77515013
C      1.04179898   -0.70355275   -0.19368504
C      0.41686223   -0.43958581    1.16090840
O      7.37163315    0.25755964   -0.18146835
H     -1.76420380   -2.43080446    1.20631776
H      0.71023851   -0.73451371    2.16278138
H     -1.79570670    0.67252813    2.39377999
O     -2.66279242   -2.51412830    0.85339195
H      6.86448187    0.38851734    0.63376699
H     -2.72384515   -1.80277616    0.19824945
O      2.38893200   -0.20778613   -0.30956697
H      0.99321580   -1.74874183   -0.52440520
H      2.66177165   -0.44425020   -1.21195894
O     -0.99368928   -0.44336969   -1.71176328
H      0.24483607    1.15968226   -1.17347296
H     -0.68766017   -0.15209368   -2.58684281
H      7.15015443   -0.64607698   -0.45229864
$end