$rem
jobtype = freq
exchange = b3lyp
basis = 6-31g*
$end

$molecule
0 1
O     -1.22603691    1.97656407    0.71434213
C     -0.55450004    1.25937661   -0.02342902
C     -0.24138477   -0.19135716    0.29309537
C      2.07174873    4.48933053    0.21726107
C      0.97656793    5.19086775    0.51075352
C      1.17267917   -0.53116438   -0.14113996
O      2.03720279    3.13339311    0.08347644
H      1.40682399   -1.57399321    0.09778366
H      1.28963904   -0.42114948   -1.22533964
H     -0.21725537    1.62174842   -1.00970500
O     -1.14979252   -1.03563987   -0.40001414
H     -0.35330588   -0.35742767    1.36962362
H     -2.03333214   -0.86323494   -0.02439325
O      1.00754691    6.55544093    0.64456649
H      0.00524565    4.73975588    0.66031549
H      0.10029998    6.84844481    0.84971052
O      3.28216633    5.10291935    0.03622667
H      1.90646543    0.11627760    0.34917624
H      3.09614881    6.05428783    0.17351646
H      2.96161842    2.91000592   -0.12821922
$end