$rem
jobtype = freq
exchange = b3lyp
basis = 6-31g*
$end

$molecule
0 1
O     -2.46731826   -0.20759556   -0.02922936
C     -1.78171367    0.67206570    0.48171156
C     -0.30836487    0.63995015    0.40514483
C      0.42230055   -0.66961796    0.42822235
C      0.37566755    0.13810042   -0.84291932
C      7.61206559    0.26656955   -0.20072792
O      6.80638573   -0.87736800    0.01511747
H      8.63512002    0.05905308    0.12240936
H      7.61058522    0.50628429   -1.26663395
H     -2.22842286    1.51808225    1.02917727
O     -0.31024142   -1.89284526    0.43500837
H      0.17022885    1.46750457    0.91766886
H     -1.24936269   -1.75204100    0.19983804
O      1.60658596    0.80353118   -1.19979185
H     -0.24968989   -0.23105770   -1.65022892
H      2.03306771    0.34586014   -1.94815387
O      1.66893755   -0.68908824    1.12579409
H      7.20534304    1.11106695    0.36098560
H      2.31832547   -0.14284869    0.64775794
H      6.82702741   -1.06560588    0.96884945
$end