$rem
 JOBTYPE FORCE
 EXCHANGE B3LYP
 SCF_ALGORITHM diis
 SCF_MAX_CYCLES 150
 SCF_CONVERGENCE 6
 basis 6-31G*
 WAVEFUNCTION_ANALYSIS FALSE
 SYM_IGNORE TRUE
 SYMMETRY   FALSE
 XC_GRID 1
$end

$molecule
0 1
C -0.83669454 -0.3288192 -0.09776085 
C 0.40278308 0.53907225 -0.16472646 
H -1.73447922 0.2560418 -0.3163742 
H -0.94179443 -0.77755796 0.89549106 
H -0.76841114 -1.15396894 -0.81426331 
O 1.55791054 -0.24330997 0.10072203 
H 0.35313741 1.35144401 0.56662537 
H 0.50952783 0.97783935 -1.16103675 
H 1.45802049 -0.62074132 0.9913231 
$end