$rem
 JOBTYPE FORCE
 EXCHANGE B3LYP
 SCF_ALGORITHM diis
 SCF_MAX_CYCLES 150
 SCF_CONVERGENCE 6
 basis 6-31G*
 WAVEFUNCTION_ANALYSIS FALSE
 SYM_IGNORE TRUE
 SYMMETRY   FALSE
 XC_GRID 1
$end

$molecule
0 1
C -0.46376745 -0.71869321 -0.19862835 
C 0.35273778 0.32525184 -0.34496067 
H 0.20667393 0.93365475 1.46287116 
H -0.94492138 -0.95161607 0.7441395 
H -0.66881196 -1.37291001 -1.04037001 
O 0.67088041 1.20201726 0.65115866 
H 5.03551139 0.18823169 -0.26119022 
H 0.84720867 0.58229543 -1.27421029 
H 5.40019482 -0.18823169 0.26119022 
$end