$rem
jobtype = freq
exchange = b3lyp
basis = 6-31g*
$end

$molecule
0 1
O     -2.77807425    1.67310817    0.82903022
C     -2.74277147    0.76245077    0.00184312
C     -1.60068529   -0.24172869   -0.13930462
C     -0.27190207    0.44532577   -0.15813665
C      0.90943601   -0.17280458   -0.01420664
C      2.23128820    0.54269328   -0.01192989
O      3.12101877   -0.20796902    0.81454150
H      2.15949266    1.56355729    0.37612290
H      2.65072377    0.56927742   -1.02172253
H     -3.59298263    0.60376520   -0.68396187
O     -1.77676174   -0.92121410   -1.37751491
H     -1.68407776   -0.95779112    0.68649132
H     -2.06167449   -1.82460746   -1.15582260
O      0.97294510   -1.54378119    0.17026195
H      0.35719505    0.05036399   -2.95994227
H      1.92976816   -1.75167404    0.24221566
O     -0.30594689    0.75463140   -3.01660957
H     -0.28446500    1.52546461   -0.28792407
H     -0.38901387    0.92195368   -3.96743244
H      2.81872203   -0.06407229    1.73001710
$end