$rem
jobtype = freq
exchange = b3lyp
basis = 6-31g*
$end

$molecule
0 1
C     -6.77939545    0.58407084   -0.15957228
C     -4.93534138    1.95346999    0.33754604
H     -7.14840221    1.28963237   -0.91026506
H     -7.24248318    0.78924453    0.81046597
H     -7.05075506   -0.42882042   -0.46893916
O     -5.36362943    0.65814919   -0.06046889
H     -5.34032152    2.20512034    1.32252620
H     -5.24326902    2.70183320   -0.39910432
H     -3.84375573    1.95196408    0.39862887
$end