$rem
 JOBTYPE FORCE
 EXCHANGE B3LYP
 SCF_ALGORITHM diis
 SCF_MAX_CYCLES 150
 SCF_CONVERGENCE 6
 basis 6-31G*
 WAVEFUNCTION_ANALYSIS FALSE
 SYM_IGNORE TRUE
 SYMMETRY   FALSE
 XC_GRID 1
$end

$molecule
0 1
C -0.8392627768142332 -0.32926592818732175 -0.09746491833596464 
C 0.4041567292919641 0.5381506937345252 -0.16414410590552778 
H -1.7386131217130774 0.2556020533000852 -0.3158587901438872 
H -0.944835718471119 -0.7773787431041229 0.8972083974891484 
H -0.771950521341167 -1.1543768545115398 -0.8143710714833824 
O 1.5623080976071064 -0.24375047181814516 0.09927595229535044 
H 0.3525837851550397 1.3543975001092963 0.5668736986766053 
H 0.5133344942201074 0.9759969421827654 -1.1606389514588185 
H 1.462279042389039 -0.6193751923115419 0.9891197764436549 
$end