$rem
jobtype = freq
exchange = b3lyp
basis = 6-31g*
$end

$molecule
0 1
O     -2.60256701    1.06079402    1.33305337
C     -1.57852357    1.04763023    0.65067558
C     -0.57174190   -0.11553769    0.60860483
C      0.02544040   -0.17637738   -0.78547126
C      1.32712032   -0.20686390   -1.09411730
C      0.43096289    0.11701046    1.73977079
O      7.70217963    0.25755964   -0.18146835
H      1.14216230   -0.71295625    1.82094129
H     -0.08489363    0.17282609    2.70630318
H     -1.30564596    1.93540200    0.05370869
O     -1.21036759   -1.36561855    0.85732733
H      7.19502835    0.38851734    0.63376699
H     -1.88122198   -1.46193223    0.15607263
O      1.74035524   -0.26354434   -2.40198494
H      2.13947847   -0.20842591   -0.37915112
H      2.70939503   -0.38091452   -2.40688858
O     -0.90112302   -0.21743989   -1.82300148
H      0.98807125    1.05139057    1.60854686
H     -0.36690123   -0.27544270   -2.64438984
H      7.48070091   -0.64607698   -0.45229864
$end