$rem
jobtype = freq
exchange = b3lyp
basis = 6-31g*
$end

$molecule
0 1
O     -2.88740538   -0.09615206    1.71008882
C     -1.86823906    0.37042457    1.23891850
C     -0.72400975   -0.27404333    0.58969042
C     -0.13864623    0.25577885   -0.68229587
C      1.39288111    0.17682391   -0.66354152
C     -0.56028406    0.48646288    1.87179600
O      7.49448565    0.25755964   -0.18146835
H     -0.43550740   -0.06886911    2.79104745
H     -0.11573277    1.46993045    1.85857055
H      1.80943443    0.82224048    0.11566417
O     -0.67092315   -1.71727547    0.70622420
H      6.98733437    0.38851734    0.63376699
H     -1.18350420   -2.10239387   -0.03257513
O      1.88722222    0.60553233   -1.93444399
H      1.73464561   -0.85068313   -0.49848456
H      2.85670299    0.51160958   -1.90483972
O     -0.62486902   -0.54121883   -1.77272332
H     -0.45202545    1.28816168   -0.87836962
H     -0.01973990   -0.33632894   -2.51472639
H      7.27300693   -0.64607698   -0.45229864
$end