$rem
 JOBTYPE FORCE
 EXCHANGE B3LYP
 SCF_ALGORITHM diis
 SCF_MAX_CYCLES 150
 SCF_CONVERGENCE 6
 basis 6-31G*
 WAVEFUNCTION_ANALYSIS FALSE
 SYM_IGNORE TRUE
 SYMMETRY   FALSE
 XC_GRID 1
$end

$molecule
0 1
C -0.4095167421454763 -1.5714796563553812 0.31287402807866105 
C -1.340395111649478 -0.6733519623610111 -0.21807682818239976 
C -1.3297966445582434 0.7134470737645784 -0.17449562979236624 
C -0.26055888876179134 1.4846581301998565 0.31037300177818894 
H -2.0557733222151366 -1.1010222265891694 -0.9189862561775674 
H -0.11077634674418554 -1.6721340267920761 1.3576791354301991 
H -0.2988373349966287 -2.487462661328858 -0.2721008572071951 
H -0.2300302506041761 2.554706421816501 0.08401387884156804 
H 0.19910151596844333 1.251123946627129 1.2589752970847892 
H -2.1304566910449307 1.2249176661417418 -0.7103951939620624 
C 1.6469909801782832 -0.4806609585712362 0.3529512215710517 
C 1.445594157314692 0.5370601522425079 -0.5783540245026009 
H 1.905829280383947 -0.12986705853603822 1.3446729162625204 
H 1.9076972392713776 -1.5152719082653046 0.17379336392452374 
H 1.1242687627389039 0.29038723908502007 -1.5875500147830344 
H 1.9528190595855968 1.4941187396892623 -0.4759638140980728 
$end