$rem
 JOBTYPE FORCE
 EXCHANGE B3LYP
 SCF_ALGORITHM diis
 SCF_MAX_CYCLES 150
 SCF_CONVERGENCE 6
 basis 6-31G*
 WAVEFUNCTION_ANALYSIS FALSE
 SYM_IGNORE TRUE
 SYMMETRY   FALSE
 XC_GRID 1
$end

$molecule
0 1
C -0.8628156203805226 -1.5647567939188958 0.05374837573322086 
C -1.691079743663942 -0.6317956090678297 -0.44006332044167884 
C -1.8406593243703693 0.7655028373525969 -0.05687645016739903 
C -0.919431804933699 1.5811212828808616 0.47432029133631626 
H -2.3657167353932427 -0.9538460503449142 -1.236284884562913 
H -0.4122433795439752 -1.478020718288867 1.0395103192202497 
H -0.7485015689290838 -2.5141956121023394 -0.46299498361965086 
H -1.141860356500361 2.636094841135279 0.6213498447773761 
H 0.03754152220235632 1.2590708210901485 0.8772473812238827 
H -2.820735198193884 1.1953745195734164 -0.26717793161449116 
C 2.7791691983783586 -0.36775912977366604 0.5510623733105369 
C 2.308385980556797 0.2172685240801756 -0.5443280270588302 
H 3.574665136475362 0.10396066016768815 1.1279394801235498 
H 2.5144468985543247 -1.365056093105324 0.8929359679416379 
H 1.5106598529270325 -0.22319062067463588 -1.137532407514417 
H 2.798831410224342 1.0961443779373523 -0.9566986637717855 
$end