$rem
 JOBTYPE FORCE
 EXCHANGE B3LYP
 SCF_ALGORITHM diis
 SCF_MAX_CYCLES 150
 SCF_CONVERGENCE 6
 basis 6-31G*
 WAVEFUNCTION_ANALYSIS FALSE
 SYM_IGNORE TRUE
 SYMMETRY   FALSE
 XC_GRID 1
$end

$molecule
0 1
C -0.576932914975457 -1.5960748224239458 0.42338335541874517 
C -1.3767679878253933 -0.7332392171929016 -0.27996889791420215 
C -1.3114636432703048 0.6899260133622316 -0.3085147253990467 
C -0.3082102515982505 1.3875148260639154 0.3385198107079757 
H -2.0023373136463767 -1.1837853910681004 -1.06979792875425 
H -0.1602899431013193 -1.404456710557057 1.4334647399774203 
H -0.6269736443686867 -2.6083351797426952 0.12395698340301772 
H -0.17676536381926466 2.4563490159740438 0.159563906287186 
H -0.026177795849493396 1.0720708693008334 1.3394744786623236 
H -1.907552248362467 1.1825452138665162 -1.0625681736406025 
C 1.7318424261111778 -0.5191637118851297 0.2200432950938132 
C 1.4042211527753032 0.6027483547756575 -0.5395110418926242 
H 2.0351114668503207 -0.32788182119053666 1.2229163201855575 
H 1.8885593603143525 -1.54264606054644 -0.12894161069786114 
H 1.145356701275584 0.4870297466076017 -1.5701694962789665 
H 1.9198068703862934 1.5496833156881595 -0.32991735114170434 
$end