$rem
jobtype = freq
exchange = b3lyp
basis = 6-31g*
$end

$molecule
0 1
O     -2.41951700   -0.18902025    0.26985523
C     -1.84740996   -0.60316576    1.27455200
C     -0.49142163   -1.30212240    1.28412831
C      0.32893087   -0.07656334   -0.61935909
C      1.69042004    0.52309697   -0.86848925
C      0.72756823    1.18995894    0.06936432
O      7.51496279    0.14218672   -0.07618027
H      0.97217699    1.17203042    1.12206977
H      0.24864849    2.10609366   -0.25607292
H     -2.31665922   -0.50120564    2.26864707
O      0.29394780   -1.30910621    0.10938877
H      0.10335595   -0.87070853    2.09614271
H     -0.68692682   -2.34632001    1.55144491
O      1.86980725    1.18382322   -2.13547543
H      2.55058083    0.02708121   -0.43401198
H      1.08380764    1.01672661   -2.69283478
O     -0.60077898    0.04110887   -1.69973865
H      7.10335879   -0.66219620   -0.42619637
H     -1.50653049   -0.06170778   -1.33961097
H      6.83563747    0.52000947    0.50237663
$end