$rem
jobtype = freq
exchange = b3lyp
basis = 6-31g*
$end

$molecule
0 1
O     -2.37422977   -2.43144256    0.05684444
C     -1.93427140   -1.30617579    0.22449224
C     -0.72121395   -0.95648653    1.02730832
C      0.44487466   -0.61063750    0.09998782
C      0.81280898    0.91282052    0.01714380
C      0.71391145    1.43938892   -1.41057999
O      2.15332206    1.11026901    0.45319750
H      1.02065991    2.49123439   -1.45703607
H      1.37813182    0.88508729   -2.08269900
H     -0.98614546   -0.17335158    1.74282349
O     -2.52443867   -0.24558224   -0.34996585
H     -0.48242680   -1.83422672    1.64139338
H     -3.31461864   -0.61781124   -0.79612404
O      0.01153270    1.71164534    0.86205756
H     -0.31178577    1.38206888   -1.78758285
H      0.41158890    2.59655345    0.80742126
O      1.61627905   -1.33450836    0.56060978
H      0.25593487   -0.98703749   -0.91333677
H      1.42822240   -2.28467504    0.44452007
H      2.40186364    0.25286727    0.85952490
$end