$rem
jobtype = freq
exchange = b3lyp
basis = 6-31g*
$end

$molecule
0 1
O     -2.12942537    2.06679098    0.97784906
C     -2.14551322    0.85794346    0.75014778
C     -0.94218436   -0.06295048    0.79290074
C      0.32321707    0.42909353    0.06112062
C      1.36987538   -0.85419021   -1.18878999
C      1.56846995   -0.45325980    0.26364263
O      7.03924161    0.14218672   -0.07618027
H      1.47480224   -1.26101920    0.99339205
H      2.49267098    0.10156846    0.45368295
H     -3.11334250    0.35715467    0.57782301
O     -1.37475465   -1.31484409    0.21264301
H     -0.73045670   -0.26301069    1.84842620
H     -1.34572443   -1.18064390   -0.75733409
O      0.26714591    0.07242243   -1.34927149
H      2.20008527   -0.61676980   -1.85896657
H      1.04915137   -1.88854135   -1.34424757
O      0.58604719    1.82569828    0.23078475
H      6.62763761   -0.66219620   -0.42619637
H      0.44993588    2.18455770   -0.66380310
H      6.35991629    0.52000947    0.50237663
$end