$rem
jobtype = freq
exchange = b3lyp
basis = 6-31g*
$end

$molecule
0 1
C     -0.38356694   -0.54216609    0.07081088
C      0.38356688    0.54216621   -0.07081027
H      1.93009960   -2.41217508    0.45812638
H     -0.78702222   -0.81993875    1.03950021
H     -0.62318880   -1.17337375   -0.77916033
O      2.39838443   -1.57639429    0.60352510
H      0.62318971    1.17337490    0.77915986
H      0.78702137    0.81993747   -1.03950036
H      2.13892853   -1.31560691    1.49998122
$end